(set-logic QF_BV)
(declare-fun _substvar_4913_ () (_ BitVec 32))
(declare-fun _substvar_3342_ () (_ BitVec 32))
(declare-fun _substvar_4167_ () (_ BitVec 8))
(declare-fun _substvar_4760_ () (_ BitVec 32))
(declare-fun _substvar_4381_ () (_ BitVec 32))
(declare-fun _substvar_5381_ () (_ BitVec 32))
(assert (let ( (?v_335 (bvadd _substvar_4760_ (_ bv7 32))) (?v_205 (bvadd _substvar_4381_ _substvar_5381_))) (let ( (?v_329 (bvadd ?v_205 (_ bv8 32)))) (and true (= _substvar_4760_ (bvor (bvshl (bvor (_ bv0 32) ((_ zero_extend 24) _substvar_4167_)) (_ bv8 32)) (_ bv0 32))) true true true true true true true true true (= _substvar_4381_ _substvar_3342_) true true true true true true true true true true true true true true true true true true true true true true true true true true true true true true true true true true true true true true true true true true true true true true true true true true true true true true true true true true true true true true true true true true true true true true true true true true true true true true true true true true true true true true true true true true true true true true true true true true true true true true true true true true true true true true true true true true true true true true true true true true true true true true true true true true true true true true true true true true true true true true true true true true true true true true true true true true true true true true true true true true true true true true true true true true true true true true true true true true true true true true true true true true true true true true true true true true true true true true true true true true true true true true true true true true true true true true true true true true true true true true true true true true true true true true true true true true true true true true true true true true true true true true true true true true true true true true true true true true true true true true true true true true true true true true true true true true true true true true true true true true true true true true true true true true true true true true true true true true true true true true true true true true true true true true true true true true true true true true true true true true true true true true true true true true true true true true true true true true true true true true true true true true true true true true true true true true true true true true true true true true true true true true true true true true true true true true true true true true true true true true true true true true true true true true true true true true true true true true true true true true true true true true true true true true true true true true true true true true true true true true true true true true true true true true true true true true true true true true true true true true true true true true true true true true true true true true true true true true true true true true true true true true true true true true true true true true true true true true true true true true true true true true true true true true true true true true true true true true true true true true true true true true true true true true true true true true true true true true true true true true true true true true true true true true true true true true true true true true true true true true true true true true true true true true true true true true true true true true true true true true true true true true true true true true true true true true true true true true true true true true true true true true true true true true true true true true true true true true true true true true true true true true true true true true true true true true true true true true true true true true true true true true true true true true true true true true true true true true true true true true true true true true true true true true true true true true true true true true true true true true true true true true true true true true true true true true true true true true true true true true true true true true true true true true true true true true true true true true true true true true true true true true true true true true true true true true true true true true true true true true true true true true true true true true true true true true true true true true true true true true true true true true true true true true true true true true true true true true true true true true true true true true true true true true true true true true true (bvule ?v_329 (_ bv0 32)) true true true true true true true true true true true true true true true true true true true true true true true true true true true true true true true true true true true true true true true true true true true true true true true true true true true true true true true true true true true true true true true true true true true true true true true true true true true true true true true true true true true true true true true true true (bvule ?v_205 _substvar_4913_) true true true true true true (bvule (_ bv65536 32) ?v_205) true (bvule ?v_205 ?v_335) true true true true true true true true true true true true true true true true true true true true true true true true true true true true true true true true true true true true true true true true true true true true true true true true true true true true true true true true true true true true true true true true true true true true true true true true true true true true true true true true true true true true true true true true true true true true true true true true true true true true true true true true true true true true true true true true true true true true true true true true true true true true true true true true true true true true true true true true true true true true true true true true true true true true true true true true true true true true true true true true true true true true true true true true true true true true true true))))
(check-sat)
(exit)
